Maximize
F 

Subject to
F - 12.0y150 - 6.0y3 - 6.0y202 - 9.0y197 - 6.0y257 - 6.0y233 - 3.0y143 - 3.0y238 - 12.0y149 - 9.0y196 - 3.0y247 - 12.0y255 - 9.0y133 - 9.0y205 - 9.0y213 - 12.0y224 = 0

x169x255x1 
<= 2
x28x257x1 + x28x233x1 + x28x247x1 
<= 1
x268x150x1 + x268x257x1 + x268x233x1 + x268x143x1 + x268x149x1 + x268x247x1 + x268x255x1 + x268x205x1 
<= 1
x59x196x2 + x59x255x2 + x59x213x2 + x59x224x2 
<= 1
x64x196x2 + x64x255x2 + x64x213x2 + x64x224x2 
<= 1
x17x196x2 + x17x255x2 + x17x213x2 + x17x224x2 
<= 1
x267x196x2 + x267x255x2 + x267x213x2 + x267x224x2 
<= 1
x36x196x2 + x36x255x2 + x36x213x2 + x36x224x2 
<= 1
x22x196x2 + x22x255x2 + x22x213x2 + x22x224x2 
<= 1

x168x238x3 
<= 1
x39x197x3 + x39x233x3 + x39x143x3 + x39x238x3 + x39x149x3 + x39x196x3 + x39x133x3 
<= 2
x28x233x3 + x28x196x3 + x28x133x3 
<= 1
x268x150x1 
- x150x0x1
- x150x257x1 - x150x233x1 - x150x143x1 - x150x247x1 - x150x205x1 
= 0


- x150x233x3 - x150x143x3 - x150x196x3 - x150x133x3 
= 0











x39x197x3 
- x197x0x3

= 0

x28x257x1 + x268x257x1 + x150x257x1 
- x257x0x1
- x257x233x1 - x257x247x1 
= 0



x28x233x1 + x268x233x1 + x150x233x1 + x257x233x1 
- x233x0x1
- x233x247x1 
= 0

x39x233x3 + x28x233x3 + x150x233x3 
- x233x0x3

= 0

x268x143x1 + x150x143x1 
- x143x0x1
- x143x247x1 
= 0

x39x143x3 + x150x143x3 
- x143x0x3
- x143x196x3 - x143x133x3 
= 0



x168x238x3 + x39x238x3 
- x238x0x3

= 0

x268x149x1 
- x149x0x1

= 0

x39x149x3 
- x149x0x3

= 0


x59x196x2 + x64x196x2 + x17x196x2 + x267x196x2 + x36x196x2 + x22x196x2 
- x196x0x2

= 0
x39x196x3 + x28x196x3 + x150x196x3 + x143x196x3 
- x196x0x3
- x196x133x3 
= 0

x28x247x1 + x268x247x1 + x150x247x1 + x257x247x1 + x233x247x1 + x143x247x1 
- x247x0x1

= 0



x169x255x1 + x268x255x1 
- x255x0x1

= 0
x59x255x2 + x64x255x2 + x17x255x2 + x267x255x2 + x36x255x2 + x22x255x2 
- x255x0x2

= 0




x39x133x3 + x28x133x3 + x150x133x3 + x143x133x3 + x196x133x3 
- x133x0x3

= 0

x268x205x1 + x150x205x1 
- x205x0x1

= 0




x59x213x2 + x64x213x2 + x17x213x2 + x267x213x2 + x36x213x2 + x22x213x2 
- x213x0x2

= 0



x59x224x2 + x64x224x2 + x17x224x2 + x267x224x2 + x36x224x2 + x22x224x2 
- x224x0x2

= 0


1y150 - x268x150x1 = 0
1y150 = 0
2y3 = 0
2y202 = 0
2y197 - x39x197x3 = 0
2y257 - x28x257x1 - x268x257x1 - x150x257x1 = 0
1y233 - x28x233x1 - x268x233x1 - x150x233x1 - x257x233x1 = 0
1y233 - x39x233x3 - x28x233x3 - x150x233x3 = 0
1y143 - x268x143x1 - x150x143x1 = 0
1y143 - x39x143x3 - x150x143x3 = 0
2y238 - x168x238x3 - x39x238x3 = 0
1y149 - x268x149x1 = 0
1y149 - x39x149x3 = 0
1y196 - x59x196x2 - x64x196x2 - x17x196x2 - x267x196x2 - x36x196x2 - x22x196x2 = 0
1y196 - x39x196x3 - x28x196x3 - x150x196x3 - x143x196x3 = 0
2y247 - x28x247x1 - x268x247x1 - x150x247x1 - x257x247x1 - x233x247x1 - x143x247x1 = 0
1y255 - x169x255x1 - x268x255x1 = 0
1y255 - x59x255x2 - x64x255x2 - x17x255x2 - x267x255x2 - x36x255x2 - x22x255x2 = 0
2y133 - x39x133x3 - x28x133x3 - x150x133x3 - x143x133x3 - x196x133x3 = 0
2y205 - x268x205x1 - x150x205x1 = 0
2y213 - x59x213x2 - x64x213x2 - x17x213x2 - x267x213x2 - x36x213x2 - x22x213x2 = 0
2y224 - x59x224x2 - x64x224x2 - x17x224x2 - x267x224x2 - x36x224x2 - x22x224x2 = 0

s168 - s238 + 9.379695z168z238z3 <= 8.21
s169 - s255 + 9.427271z169z255z1 <= 8.31
s39 - s197 + 9.257613z39z197z3 <= 8.07
s39 - s233 + 9.231363z39z233z3 <= 8.07
s39 - s143 + 9.278579z39z143z3 <= 8.07
s39 - s238 + 9.332123z39z238z3 <= 8.07
s39 - s149 + 9.331116z39z149z3 <= 8.07
s39 - s196 + 9.307078z39z196z3 <= 8.07
s39 - s133 + 9.302976z39z133z3 <= 8.07
s28 - s257 + 9.272032z28z257z1 <= 8.20
s28 - s233 + 9.298326z28z233z1 <= 8.20
s28 - s233 + 9.298326z28z233z3 <= 8.20
s28 - s196 + 9.430515z28z196z3 <= 8.20
s28 - s247 + 9.353115z28z247z1 <= 8.20
s28 - s133 + 9.421709z28z133z3 <= 8.20
s59 - s196 + 8.177467z59z196z2 <= 6.68
s59 - s255 + 8.221128z59z255z2 <= 6.68
s59 - s213 + 8.435589z59z213z2 <= 6.68
s59 - s224 + 8.333773z59z224z2 <= 6.68
s64 - s196 + 8.565360z64z196z2 <= 7.12
s64 - s255 + 8.516231z64z255z2 <= 7.12
s64 - s213 + 8.776213z64z213z2 <= 7.12
s64 - s224 + 8.691043z64z224z2 <= 7.12
s17 - s196 + 9.143629z17z196z2 <= 7.62
s17 - s255 + 8.834757z17z255z2 <= 7.62
s17 - s213 + 9.269026z17z213z2 <= 7.62
s17 - s224 + 9.216730z17z224z2 <= 7.62
s267 - s196 + 9.279155z267z196z2 <= 7.72
s267 - s255 + 8.938870z267z255z2 <= 7.72
s267 - s213 + 9.407547z267z213z2 <= 7.72
s267 - s224 + 9.355153z267z224z2 <= 7.72
s268 - s150 + 9.097796z268z150z1 <= 7.62
s268 - s257 + 9.131126z268z257z1 <= 7.62
s268 - s233 + 9.104828z268z233z1 <= 7.62
s268 - s143 + 9.004762z268z143z1 <= 7.62
s268 - s149 + 9.322433z268z149z1 <= 7.62
s268 - s247 + 9.055218z268z247z1 <= 7.62
s268 - s255 + 9.155440z268z255z1 <= 7.62
s268 - s205 + 8.922381z268z205z1 <= 7.62
s36 - s196 + 9.118102z36z196z2 <= 7.56
s36 - s255 + 8.767594z36z255z2 <= 7.56
s36 - s213 + 9.244144z36z213z2 <= 7.56
s36 - s224 + 9.192765z36z224z2 <= 7.56
s22 - s196 + 8.841883z22z196z2 <= 7.42
s22 - s255 + 8.654889z22z255z2 <= 7.42
s22 - s213 + 8.949181z22z213z2 <= 7.42
s22 - s224 + 8.899466z22z224z2 <= 7.42
s150 - s257 + 10.233334z150z257z1 <= 9.20
s150 - s233 + 10.227488z150z233z1 <= 9.20
s150 - s233 + 10.227488z150z233z3 <= 9.20
s150 - s143 + 10.328062z150z143z1 <= 9.20
s150 - s143 + 10.328062z150z143z3 <= 9.20
s150 - s196 + 10.366667z150z196z3 <= 9.20
s150 - s247 + 10.281377z150z247z1 <= 9.20
s150 - s133 + 10.356205z150z133z3 <= 9.20
s150 - s205 + 10.436737z150z205z1 <= 9.20
s257 - s233 + 10.337712z257z233z1 <= 9.30
s257 - s247 + 10.404137z257z247z1 <= 9.30
s233 - s247 + 10.426666z233z247z1 <= 9.36
s143 - s196 + 10.418873z143z196z3 <= 9.38
s143 - s247 + 10.434975z143z247z1 <= 9.38
s143 - s133 + 10.408284z143z133z3 <= 9.38
s196 - s133 + 10.453333z196z133z3 <= 9.44

x168x238x3 - 2z168z238z3 <= 0
x169x255x1 - 1z169z255z1 <= 0
x39x197x3 - 2z39z197z3 <= 0
x39x233x3 - 1z39z233z3 <= 0
x39x143x3 - 1z39z143z3 <= 0
x39x238x3 - 2z39z238z3 <= 0
x39x149x3 - 1z39z149z3 <= 0
x39x196x3 - 1z39z196z3 <= 0
x39x133x3 - 2z39z133z3 <= 0
x28x257x1 - 2z28z257z1 <= 0
x28x233x1 - 1z28z233z1 <= 0
x28x233x3 - 1z28z233z3 <= 0
x28x196x3 - 1z28z196z3 <= 0
x28x247x1 - 2z28z247z1 <= 0
x28x133x3 - 2z28z133z3 <= 0
x59x196x2 - 1z59z196z2 <= 0
x59x255x2 - 1z59z255z2 <= 0
x59x213x2 - 2z59z213z2 <= 0
x59x224x2 - 2z59z224z2 <= 0
x64x196x2 - 1z64z196z2 <= 0
x64x255x2 - 1z64z255z2 <= 0
x64x213x2 - 2z64z213z2 <= 0
x64x224x2 - 2z64z224z2 <= 0
x17x196x2 - 1z17z196z2 <= 0
x17x255x2 - 1z17z255z2 <= 0
x17x213x2 - 2z17z213z2 <= 0
x17x224x2 - 2z17z224z2 <= 0
x267x196x2 - 1z267z196z2 <= 0
x267x255x2 - 1z267z255z2 <= 0
x267x213x2 - 2z267z213z2 <= 0
x267x224x2 - 2z267z224z2 <= 0
x268x150x1 - 1z268z150z1 <= 0
x268x257x1 - 2z268z257z1 <= 0
x268x233x1 - 1z268z233z1 <= 0
x268x143x1 - 1z268z143z1 <= 0
x268x149x1 - 1z268z149z1 <= 0
x268x247x1 - 2z268z247z1 <= 0
x268x255x1 - 1z268z255z1 <= 0
x268x205x1 - 2z268z205z1 <= 0
x36x196x2 - 1z36z196z2 <= 0
x36x255x2 - 1z36z255z2 <= 0
x36x213x2 - 2z36z213z2 <= 0
x36x224x2 - 2z36z224z2 <= 0
x22x196x2 - 1z22z196z2 <= 0
x22x255x2 - 1z22z255z2 <= 0
x22x213x2 - 2z22z213z2 <= 0
x22x224x2 - 2z22z224z2 <= 0
x150x257x1 - 2z150z257z1 <= 0
x150x233x1 - 1z150z233z1 <= 0
x150x233x3 - 1z150z233z3 <= 0
x150x143x1 - 1z150z143z1 <= 0
x150x143x3 - 1z150z143z3 <= 0
x150x196x3 - 1z150z196z3 <= 0
x150x247x1 - 2z150z247z1 <= 0
x150x133x3 - 2z150z133z3 <= 0
x150x205x1 - 2z150z205z1 <= 0
x150x0x1 <= 1
x150x0x3 <= 1
x3x0x3 <= 2
x202x0x3 <= 2
x197x0x3 <= 2
x257x233x1 - 1z257z233z1 <= 0
x257x247x1 - 2z257z247z1 <= 0
x257x0x1 <= 2
x233x247x1 - 2z233z247z1 <= 0
x233x0x1 <= 1
x233x0x3 <= 1
x143x196x3 - 1z143z196z3 <= 0
x143x247x1 - 2z143z247z1 <= 0
x143x133x3 - 2z143z133z3 <= 0
x143x0x1 <= 1
x143x0x3 <= 1
x238x0x3 <= 2
x149x0x1 <= 1
x149x0x3 <= 1
x196x133x3 - 2z196z133z3 <= 0
x196x0x2 <= 1
x196x0x3 <= 1
x247x0x1 <= 2
x255x0x1 <= 1
x255x0x2 <= 1
x133x0x3 <= 2
x205x0x1 <= 2
x213x0x2 <= 2
x224x0x2 <= 2

s150 - 6.00z268z150z1 >= 0
s197 - 6.00z39z197z3 >= 0
s257 - 6.00z28z257z1 >= 0
s257 - 6.00z268z257z1 >= 0
s257 - 6.00z150z257z1 >= 0
s233 - 6.00z39z233z3 >= 0
s233 - 6.00z28z233z1 >= 0
s233 - 6.00z28z233z3 >= 0
s233 - 6.00z268z233z1 >= 0
s233 - 6.00z150z233z1 >= 0
s233 - 6.00z150z233z3 >= 0
s233 - 6.00z257z233z1 >= 0
s143 - 6.00z39z143z3 >= 0
s143 - 6.00z268z143z1 >= 0
s143 - 6.00z150z143z1 >= 0
s143 - 6.00z150z143z3 >= 0
s238 - 6.00z168z238z3 >= 0
s238 - 6.00z39z238z3 >= 0
s149 - 6.00z39z149z3 >= 0
s149 - 6.00z268z149z1 >= 0
s196 - 6.00z39z196z3 >= 0
s196 - 6.00z28z196z3 >= 0
s196 - 6.00z59z196z2 >= 0
s196 - 6.00z64z196z2 >= 0
s196 - 6.00z17z196z2 >= 0
s196 - 6.00z267z196z2 >= 0
s196 - 6.00z36z196z2 >= 0
s196 - 6.00z22z196z2 >= 0
s196 - 6.00z150z196z3 >= 0
s196 - 6.00z143z196z3 >= 0
s247 - 6.00z28z247z1 >= 0
s247 - 6.00z268z247z1 >= 0
s247 - 6.00z150z247z1 >= 0
s247 - 6.00z257z247z1 >= 0
s247 - 6.00z233z247z1 >= 0
s247 - 6.00z143z247z1 >= 0
s255 - 6.00z169z255z1 >= 0
s255 - 6.00z59z255z2 >= 0
s255 - 6.00z64z255z2 >= 0
s255 - 6.00z17z255z2 >= 0
s255 - 6.00z267z255z2 >= 0
s255 - 6.00z268z255z1 >= 0
s255 - 6.00z36z255z2 >= 0
s255 - 6.00z22z255z2 >= 0
s133 - 6.00z39z133z3 >= 0
s133 - 6.00z28z133z3 >= 0
s133 - 6.00z150z133z3 >= 0
s133 - 6.00z143z133z3 >= 0
s133 - 6.00z196z133z3 >= 0
s205 - 6.00z268z205z1 >= 0
s205 - 6.00z150z205z1 >= 0
s213 - 6.00z59z213z2 >= 0
s213 - 6.00z64z213z2 >= 0
s213 - 6.00z17z213z2 >= 0
s213 - 6.00z267z213z2 >= 0
s213 - 6.00z36z213z2 >= 0
s213 - 6.00z22z213z2 >= 0
s224 - 6.00z59z224z2 >= 0
s224 - 6.00z64z224z2 >= 0
s224 - 6.00z17z224z2 >= 0
s224 - 6.00z267z224z2 >= 0
s224 - 6.00z36z224z2 >= 0
s224 - 6.00z22z224z2 >= 0

Bounds
s168 = 8.205212
s169 = 8.313937
s39 = 8.066709
s263 = 8.522550
s8 = 8.774992
s114 = 8.781088
s189 = 8.953974
s28 = 8.204044
s86 = 8.801610
s88 = 8.907548
s59 = 6.675560
s64 = 7.119690
s17 = 7.622050
s267 = 7.721820
s268 = 7.617750
s36 = 7.555410
s22 = 7.421460
8.200000 <= s150 <= 9.200000
8.220000 <= s3 <= 9.220000
8.270000 <= s202 <= 9.270000
8.300000 <= s197 <= 9.300000
8.300000 <= s257 <= 9.300000
8.360000 <= s233 <= 9.360000
8.380000 <= s143 <= 9.380000
8.420000 <= s238 <= 9.420000
8.440000 <= s149 <= 9.440000
8.440000 <= s196 <= 9.440000
8.450000 <= s247 <= 9.450000
8.450000 <= s255 <= 9.450000
8.470000 <= s133 <= 9.470000
8.470000 <= s205 <= 9.470000
8.490000 <= s213 <= 9.490000
8.500000 <= s224 <= 9.500000

General
x168x238x3 
x169x255x1 
x39x197x3 x39x233x3 x39x143x3 x39x238x3 x39x149x3 x39x196x3 x39x133x3 




x28x257x1 x28x233x1 x28x233x3 x28x196x3 x28x247x1 x28x133x3 


x59x196x2 x59x255x2 x59x213x2 x59x224x2 
x64x196x2 x64x255x2 x64x213x2 x64x224x2 
x17x196x2 x17x255x2 x17x213x2 x17x224x2 
x267x196x2 x267x255x2 x267x213x2 x267x224x2 
x268x150x1 x268x257x1 x268x233x1 x268x143x1 x268x149x1 x268x247x1 x268x255x1 x268x205x1 
x36x196x2 x36x255x2 x36x213x2 x36x224x2 
x22x196x2 x22x255x2 x22x213x2 x22x224x2 
x150x257x1 x150x233x1 x150x233x3 x150x143x1 x150x143x3 x150x196x3 x150x247x1 x150x133x3 x150x205x1 x150x0x1 x150x0x3 
x3x0x3 
x202x0x3 
x197x0x3 
x257x233x1 x257x247x1 x257x0x1 
x233x247x1 x233x0x1 x233x0x3 
x143x196x3 x143x247x1 x143x133x3 x143x0x1 x143x0x3 
x238x0x3 
x149x0x1 x149x0x3 
x196x133x3 x196x0x2 x196x0x3 
x247x0x1 
x255x0x1 x255x0x2 
x133x0x3 
x205x0x1 
x213x0x2 
x224x0x2 

Binaries
y150 y3 y202 y197 y257 y233 y143 y238 y149 y196 y247 y255 y133 y205 y213 y224 
z168z238z3 
z169z255z1 
z39z197z3 z39z233z3 z39z143z3 z39z238z3 z39z149z3 z39z196z3 z39z133z3 




z28z257z1 z28z233z1 z28z233z3 z28z196z3 z28z247z1 z28z133z3 


z59z196z2 z59z255z2 z59z213z2 z59z224z2 
z64z196z2 z64z255z2 z64z213z2 z64z224z2 
z17z196z2 z17z255z2 z17z213z2 z17z224z2 
z267z196z2 z267z255z2 z267z213z2 z267z224z2 
z268z150z1 z268z257z1 z268z233z1 z268z143z1 z268z149z1 z268z247z1 z268z255z1 z268z205z1 
z36z196z2 z36z255z2 z36z213z2 z36z224z2 
z22z196z2 z22z255z2 z22z213z2 z22z224z2 
z150z257z1 z150z233z1 z150z233z3 z150z143z1 z150z143z3 z150z196z3 z150z247z1 z150z133z3 z150z205z1 



z257z233z1 z257z247z1 
z233z247z1 
z143z196z3 z143z247z1 z143z133z3 


z196z133z3 







End